150 579429568
120 55 65 33 89 58 125 31 105 52 36 104 103 25 86 114 147 109 115 127 83 38 150 113 4 72 132 61 56 77 34 96 41 128 27 108 146 82 130 63 76 18 92 119 42 12 16 139 66 134 112 75 30 48 59 11 39 131 44 43 111 23 78 26 141 149 62 40 67 32 91 88 122 101 116 17 2 57 29 87 94 142 47 137 22 24 73 28 74 1 45 135 13 51 80 95 143 60 102 90 35 117 97 8 100 144 107 64 129 20 3 123 145 106 140 53 121 124 49 9 148 133 138 50 46 70 81 93 118 37 10 19 21 14 136 84 7 15 110 6 99 54 98 71 69 5 126 85 68 79 
